CUSTOMERS : 10
VEHICLES : 8
0 241 216 97 244 104 204 77 177 183 297 
241 0 236 155 22 345 278 221 258 336 534 
216 236 0 157 255 283 56 140 365 146 470 
97 155 157 0 163 198 170 69 210 196 393 
244 22 255 163 0 347 295 230 246 349 533 
104 345 283 198 347 0 251 155 226 191 197 
204 278 56 170 295 251 0 129 369 92 430 
77 221 140 69 230 155 129 0 241 132 350 
177 258 365 210 246 226 369 241 0 360 350 
183 336 146 196 349 191 92 132 360 0 349 
297 534 470 393 533 197 430 350 350 349 0 
